certificates/rado_a9_c40_N29.cnf
c Rad2 upper bound instance: x1 + 9*x2 - x3 = 40, interval [1,29]
p cnf 29 184
1 5 6 0
-1 -5 -6 0
1 6 15 0
-1 -6 -15 0
1 7 24 0
-1 -7 -24 0
2 5 7 0
-2 -5 -7 0
2 6 16 0
-2 -6 -16 0
2 7 25 0
-2 -7 -25 0
3 5 8 0
-3 -5 -8 0
3 6 17 0
-3 -6 -17 0
3 7 26 0
-3 -7 -26 0
4 5 9 0
-4 -5 -9 0
4 6 18 0
-4 -6 -18 0
4 7 27 0
-4 -7 -27 0
1 4 5 0
-1 -4 -5 0
5 10 0
-5 -10 0
5 6 19 0
-5 -6 -19 0
5 7 28 0
-5 -7 -28 0
2 4 6 0
-2 -4 -6 0
5 6 11 0
-5 -6 -11 0
6 20 0
-6 -20 0
6 7 29 0
-6 -7 -29 0
3 4 7 0
-3 -4 -7 0
5 7 12 0
-5 -7 -12 0
6 7 21 0
-6 -7 -21 0
4 8 0
-4 -8 0
5 8 13 0
-5 -8 -13 0
6 8 22 0
-6 -8 -22 0
5 9 14 0
-5 -9 -14 0
6 9 23 0
-6 -9 -23 0
4 6 10 0
-4 -6 -10 0
5 10 15 0
-5 -10 -15 0
6 10 24 0
-6 -10 -24 0
4 7 11 0
-4 -7 -11 0
5 11 16 0
-5 -11 -16 0
6 11 25 0
-6 -11 -25 0
4 8 12 0
-4 -8 -12 0
5 12 17 0
-5 -12 -17 0
6 12 26 0
-6 -12 -26 0
4 9 13 0
-4 -9 -13 0
5 13 18 0
-5 -13 -18 0
6 13 27 0
-6 -13 -27 0
1 3 14 0
-1 -3 -14 0
4 10 14 0
-4 -10 -14 0
5 14 19 0
-5 -14 -19 0
6 14 28 0
-6 -14 -28 0
2 3 15 0
-2 -3 -15 0
4 11 15 0
-4 -11 -15 0
5 15 20 0
-5 -15 -20 0
6 15 29 0
-6 -15 -29 0
3 16 0
-3 -16 0
4 12 16 0
-4 -12 -16 0
5 16 21 0
-5 -16 -21 0
3 4 17 0
-3 -4 -17 0
4 13 17 0
-4 -13 -17 0
5 17 22 0
-5 -17 -22 0
3 5 18 0
-3 -5 -18 0
4 14 18 0
-4 -14 -18 0
5 18 23 0
-5 -18 -23 0
3 6 19 0
-3 -6 -19 0
4 15 19 0
-4 -15 -19 0
5 19 24 0
-5 -19 -24 0
3 7 20 0
-3 -7 -20 0
4 16 20 0
-4 -16 -20 0
5 20 25 0
-5 -20 -25 0
3 8 21 0
-3 -8 -21 0
4 17 21 0
-4 -17 -21 0
5 21 26 0
-5 -21 -26 0
3 9 22 0
-3 -9 -22 0
4 18 22 0
-4 -18 -22 0
5 22 27 0
-5 -22 -27 0
1 2 23 0
-1 -2 -23 0
3 10 23 0
-3 -10 -23 0
4 19 23 0
-4 -19 -23 0
5 23 28 0
-5 -23 -28 0
2 24 0
-2 -24 0
3 11 24 0
-3 -11 -24 0
4 20 24 0
-4 -20 -24 0
5 24 29 0
-5 -24 -29 0
2 3 25 0
-2 -3 -25 0
3 12 25 0
-3 -12 -25 0
4 21 25 0
-4 -21 -25 0
2 4 26 0
-2 -4 -26 0
3 13 26 0
-3 -13 -26 0
4 22 26 0
-4 -22 -26 0
2 5 27 0
-2 -5 -27 0
3 14 27 0
-3 -14 -27 0
4 23 27 0
-4 -23 -27 0
2 6 28 0
-2 -6 -28 0
3 15 28 0
-3 -15 -28 0
4 24 28 0
-4 -24 -28 0
2 7 29 0
-2 -7 -29 0
3 16 29 0
-3 -16 -29 0
4 25 29 0
-4 -25 -29 0
