certificates/rado_a9_c40_N29.drat
-24 4 -29 0
-25 -29 0
d -4 -25 -29 0
-2 -26 -28 -29 0
-24 -28 -29 0
-28 -29 0
d -24 -28 -29 0
24 -29 0
-29 0
-4 -24 0
-24 0
2 0
5 0
-7 0
-10 0
-27 0
1 0
4 0
6 0
-23 0
0
